NPROCS=0
This instance is clustered!
Gurobi Optimizer version 9.0.0 build v9.0.0rc2 (linux64)
Optimize a model with 26 rows, 170 columns and 338 nonzeros
Model fingerprint: 0x8d13a0c5
Variable types: 1 continuous, 169 integer (169 binary)
Coefficient statistics:
  Matrix range     [1e+00, 1e+00]
  Objective range  [1e+00, 1e+02]
  Bounds range     [1e+00, 1e+00]
  RHS range        [1e+00, 1e+00]
Presolve removed 2 rows and 36 columns
Presolve time: 0.00s
Presolved: 24 rows, 134 columns, 266 nonzeros
Variable types: 1 continuous, 133 integer (133 binary)

Root relaxation: objective 1.481962e+02, 23 iterations, 0.00 seconds

    Nodes    |    Current Node    |     Objective Bounds      |     Work
 Expl Unexpl |  Obj  Depth IntInf | Incumbent    BestBd   Gap | It/Node Time

     0     0  182.33502    0   16          -  182.33502      -     -    0s
     0     0  185.33249    0   12          -  185.33249      -     -    0s
H    0     0                     372.3507967  185.33249  50.2%     -    0s
H    0     0                     305.9848736  185.33249  39.4%     -    0s
     0     0  207.47023    0   24  305.98487  207.47023  32.2%     -    0s
H    0     0                     301.8847352  207.47023  31.3%     -    0s
     0     0  207.47023    0   24  301.88474  207.47023  31.3%     -    0s
     0     2  207.47023    0   24  301.88474  207.47023  31.3%     -    0s
  8281  3301  267.15794   26   25  301.88474  255.52877  15.4%   3.4    5s
 10641  3775  258.55312   31    9  301.88474  255.52877  15.4%   3.5   10s
 17723  3915  269.58934   27   13  301.88474  258.27353  14.4%   3.4   15s
 22260  4709  282.63609   36   17  301.88474  265.22627  12.1%   3.4   20s
 26980  5219 infeasible   35       301.88474  271.19746  10.2%   3.4   25s
 30678  5256  300.75272   32    -  301.88474  276.27446  8.48%   3.4   30s
 34529  4944     cutoff   43       301.88474  280.37197  7.13%   3.4   35s
 37563  4354     cutoff   25       301.88474  284.43660  5.78%   3.4   40s
 40076  3632  293.80584   38    6  301.88474  287.87943  4.64%   3.4   45s
 42800  2909     cutoff   35       301.88474  292.20723  3.21%   3.4   51s
 44935  1020     cutoff   40       301.88474  295.70564  2.05%   3.3   56s

Cutting planes:
  Gomory: 6
  Zero half: 1
  Lazy constraints: 7976

Explored 47159 nodes (155227 simplex iterations) in 59.08 seconds
Thread count was 12 (of 12 available processors)

Solution count 3: 301.885 305.985 372.351 

Optimal solution found (tolerance 1.00e-04)
Best objective 3.018847352270e+02, best bound 3.018847352270e+02, gap 0.0000%

User-callback calls 119472, time in user-callback 0.53 sec
/projects/academic/josewalt/caigao/RRARP_BD/BendersDecomp/ret/model_outs/n_11_h_6_algo_2.out
 =====>>>>> Solution is written to file in <../ret/model_outs> !!!
===>> All Done!
